\ Model MPC_copy
\ LP format - for model browsing. Use MPS format to capture full model detail.
Minimize
 
Subject To
 R25: u[1,3] - u_41 - u_43 = 0
 R26: u[1,2] + u_41 - u_43 = -3
 R27: - u[1,0] - u[1,2] + C - u_41 = 9
 R31: u[1,0] - u[1,3] >= 0
Bounds
 u[1,0] free
 u[1,2] >= 25
 u[1,3] free
 -infinity <= C <= 100
 u_41 >= 25
 u_43 free
Generals
 u[1,0] u[1,2] u[1,3] C u_41 u_43
End
